0 0 0 0
0 1 0 0
0 2 1 23
0 3 0 0
0 4 1 6
0 5 0 4
0 6 0 5
0 7 1 1
0 8 2 1
0 9 0 7
0 10 1 9
0 11 2 17
0 12 0 10
0 13 1 1
0 14 0 10
0 15 2 7
0 16 1 17
0 17 1 10
0 18 1 17
0 19 2 15
0 20 2 15
0 21 1 23
0 22 0 25
0 23 0 25
0 24 2 9
0 25 1 26
0 26 0 29
0 27 2 16
0 28 0 31
0 29 0 29
0 30 0 29
0 31 0 33
